benchmarks/bfuzz0/2030033498693037729569102441295821720.smt2
(set-logic QF_FP)
(declare-const x0 (_ FloatingPoint 11 53))
(declare-const x1 (_ FloatingPoint 11 53))
(declare-const x2 (_ FloatingPoint 11 53))
(declare-const x3 (_ FloatingPoint 11 53))
(declare-const x4 (_ FloatingPoint 11 53))
(declare-const x5 (_ FloatingPoint 11 53))
(declare-const x6 (_ FloatingPoint 11 53))
(declare-const x7 (_ FloatingPoint 11 53))
(declare-const x8 (_ FloatingPoint 11 53))
(declare-const x9 (_ FloatingPoint 11 53))
(declare-const x10 (_ FloatingPoint 11 53))
(declare-const x11 (_ FloatingPoint 11 53))
(declare-const x12 (_ FloatingPoint 11 53))
(declare-const x13 (_ FloatingPoint 11 53))
(declare-const x14 (_ FloatingPoint 11 53))
(declare-const x15 (_ FloatingPoint 11 53))
(declare-const x16 (_ FloatingPoint 11 53))
(declare-const x17 (_ FloatingPoint 11 53))
(declare-const x18 (_ FloatingPoint 11 53))
(declare-const x19 (_ FloatingPoint 11 53))
(assert (fp.lt (fp.add RNE (fp.neg x12) (fp.div RNE x3 x10)) (fp.neg (fp.neg x9))))
(assert (fp.leq (fp.neg (fp.mul RNE x17 x16)) (fp.neg (fp.mul RNE x19 x15))))
(assert (fp.geq (fp.add RNE (fp.add RNE x9 x6) (fp.neg x8)) (fp.mul RNE (fp.neg x19) (fp.neg x3))))
(assert (fp.geq (fp.div RNE (fp.sub RNE x4 x6) (fp.add RNE x2 x12)) (fp.div RNE (fp.neg x11) (fp.neg x9))))
(assert (fp.gt (fp.neg (fp.mul RNE x19 x14)) (fp.mul RNE (fp.neg x0) (fp.sub RNE x17 x16))))
(assert (fp.gt (fp.mul RNE (fp.sub RNE x7 x0) (fp.sub RNE x3 x11)) (fp.sub RNE (fp.div RNE x19 x11) (fp.sub RNE x15 x3))))
(assert (fp.gt (fp.add RNE (fp.add RNE x5 x6) (fp.div RNE x5 x18)) (fp.mul RNE (fp.div RNE x9 x19) (fp.sub RNE x7 x15))))
(assert (fp.eq (fp.mul RNE (fp.neg x12) (fp.add RNE x11 x4)) (fp.div RNE (fp.sub RNE x14 x8) (fp.sub RNE x11 x8))))
(assert (fp.eq (fp.neg (fp.div RNE x7 x13)) (fp.add RNE (fp.div RNE x4 x4) (fp.sub RNE x7 x16))))
(assert (fp.eq (fp.sub RNE (fp.neg x8) (fp.div RNE x0 x1)) (fp.sub RNE (fp.neg x3) (fp.neg x17))))
(assert (fp.gt (fp.add RNE (fp.neg x2) (fp.mul RNE x9 x9)) (fp.add RNE (fp.sub RNE x18 x4) (fp.neg x19))))
(assert (fp.leq (fp.mul RNE (fp.div RNE x13 x6) (fp.sub RNE x14 x7)) (fp.sub RNE (fp.div RNE x17 x12) (fp.neg x15))))
(assert (fp.gt (fp.sub RNE (fp.add RNE x9 x5) (fp.neg x1)) (fp.add RNE (fp.mul RNE x19 x4) (fp.mul RNE x2 x14))))
(assert (fp.gt (fp.neg (fp.neg x19)) (fp.mul RNE (fp.div RNE x16 x0) (fp.div RNE x10 x5))))
(assert (fp.gt (fp.neg (fp.div RNE x7 x6)) (fp.sub RNE (fp.div RNE x4 x0) (fp.add RNE x16 x18))))
(assert (fp.lt (fp.add RNE (fp.div RNE x11 x11) (fp.neg x10)) (fp.sub RNE (fp.neg x0) (fp.sub RNE x7 x19))))
(assert (fp.gt (fp.mul RNE (fp.mul RNE x9 x8) (fp.mul RNE x2 x16)) (fp.add RNE (fp.add RNE x4 x0) (fp.add RNE x15 x19))))
(check-sat)
