db/data/2030033498693037729569102441295821720.z3.out
-------------------
2500.112401658
